11
0 18 58 21 22 53 50 34 57 48 35 
18 0 57 35 53 54 24 35 40 12 38 
58 57 0 21 20 53 26 55 22 14 12 
21 35 21 0 14 31 14 44 53 16 30 
22 53 20 14 0 19 51 40 14 18 24 
53 54 53 31 19 0 14 39 31 55 42 
50 24 26 14 51 14 0 32 42 22 10 
34 35 55 44 40 39 32 0 59 33 46 
57 40 22 53 14 31 42 59 0 11 46 
48 12 14 16 18 55 22 33 11 0 47 
35 38 12 30 24 42 10 46 46 47 0 
